NAME : rc_203.3.9214397.tour
COMMENT : Length = 9214397
COMMENT : Found by LKH [Keld Helsgaun] Tue May  2 05:51:22 2017
TYPE : TOUR
DIMENSION : 37
TOUR_SECTION
1
35
32
20
16
15
19
17
14
12
10
9
11
13
24
25
34
36
21
30
29
18
2
6
4
3
27
37
23
26
5
7
28
22
8
33
31
-1
EOF
